; benchmark generated from python API
(set-info :status unknown)
(declare-fun S_2 () Real)
(declare-fun L_1 () Real)
(declare-fun A_2 () Real)
(declare-fun S_1 () Real)
(declare-fun A_1 () Real)
(declare-fun A_3 () Real)
(declare-fun S_0 () Real)
(declare-fun L_0 () Real)
(declare-fun A_0 () Real)
(declare-fun loss_rate_tol () Real)
(assert
 (let (($x9690 (not (<= 0.0 loss_rate_tol))))
 (let (($x1469 (<= (+ (* (- 1.0) L_1) (* (- 1.0) S_1) A_0) 0.0)))
 (let ((?x587 (* (- 1.0) A_3)))
 (let ((?x878 (* (- 1.0) S_1)))
 (let ((?x1767 (* (/ 3.0 2.0) S_2)))
 (let ((?x849 (* (/ 1.0 2.0) L_0)))
 (let ((?x1595 (* (/ 1.0 2.0) A_0)))
 (let (($x462 (not (<= 0.0 (+ ?x1595 ?x849 ?x1767 ?x878 ?x587 loss_rate_tol)))))
 (let (($x448 (<= 0.0 (+ (* (- 2.0) A_0) (* 2.0 L_0) (* 3.0 S_2) ?x587 L_1))))
 (let (($x446 (not $x448)))
 (let (($x476 (<= 0.0 (+ (* (- 1.0) A_0) L_0 S_2 ?x587 A_1 loss_rate_tol))))
 (let (($x474 (not $x476)))
 (let (($x9962 (<= 0.0 (+ (* (- 2.0) A_0) (* 2.0 L_0) (* 3.0 S_2) L_1 ?x587))))
 (let (($x9963 (not $x9962)))
 (let (($x1613 (<= (+ A_0 (* (- 1.0) L_0) A_3 (* (- 1.0) S_2) (* (- 1.0) A_1)) 0.0)))
 (let (($x1578 (not $x1613)))
 (let (($x470 (<= 0.0 (+ (* (- (/ 1.0 2.0)) A_0) ?x849 (* (/ 1.0 2.0) S_2) ?x587 A_2 loss_rate_tol))))
 (let (($x468 (not $x470)))
 (let ((?x1381 (* 2.0 S_2)))
 (let ((?x1288 (* 2.0 L_0)))
 (let ((?x2771 (* (- 3.0) A_0)))
 (let (($x10208 (not (<= 0.0 (+ ?x2771 ?x1288 ?x1381 S_0 L_1 A_2 ?x587)))))
 (let (($x9649 (not (<= 0.0 (+ (* (- 1.0) A_0) L_0 ?x1381 L_1 (* (- 1.0) A_1))))))
 (let (($x1746 (<= (+ (* (- (/ 1.0 2.0)) A_0) ?x849 (* (/ 1.0 2.0) S_2) ?x587 A_2) 0.0)))
 (let ((?x559 (* (- 1.0) L_0)))
 (let ((?x568 (* (- 1.0) L_1)))
 (let (($x488 (= ?x568 ?x559)))
 (let (($x9911 (not (<= 0.0 (+ (* (- (/ 5.0 2.0)) A_0) (* (/ 3.0 2.0) L_0) ?x1767 S_0 L_1)))))
 (let (($x9904 (not (<= 0.0 (+ A_2 ?x587 loss_rate_tol)))))
 (let (($x11912 (or $x488 $x9649 $x9904 (<= 0.0 (+ (* (/ 1.0 4.0) A_2) (* (- (/ 1.0 4.0)) A_3))) $x10208)))
 (let (($x2842 (<= (+ (* (- (/ 3.0 2.0)) A_0) ?x849 ?x587 (* (/ 1.0 2.0) S_2) S_0 L_1 A_2) 0.0)))
 (let (($x10694 (<= 0.0 (+ L_1 (* (- 1.0) A_1) ?x1381 ?x878 ?x587 A_0 loss_rate_tol))))
 (let (($x10695 (not $x10694)))
 (let (($x9644 (not (<= 0.0 (+ L_1 (* (- (/ 4.0 5.0)) A_1) S_2 (* (- (/ 1.0 5.0)) A_3))))))
 (let (($x1443 (<= (+ (* (- 1.0) A_2) S_2 ?x878 A_0) 0.0)))
 (let (($x10641 (<= 0.0 (+ L_1 (* (- 1.0) A_1) S_2 ?x587 A_2 loss_rate_tol))))
 (let (($x10642 (not $x10641)))
 (let ((?x712 (* (- 1.0) A_0)))
 (let ((?x1384 (* 3.0 S_2)))
 (let (($x10570 (not (<= 0.0 (+ (* 4.0 L_1) (* (- 3.0) A_1) ?x1384 S_0 ?x712)))))
 (let (($x10007 (<= 0.0 (+ A_2 (* (- 4.0) A_0) (* 4.0 L_0) (* 4.0 S_1) ?x587))))
 (let (($x10008 (not $x10007)))
 (let (($x510 (<= 0.0 (+ (* (- 5.0) A_0) (* 5.0 L_0) (* 6.0 S_1) L_1 ?x587))))
 (let (($x509 (not $x510)))
 (let (($x1152 (<= (+ ?x568 A_1 (* (- 1.0) S_2)) 0.0)))
 (let (($x2438 (<= (+ S_2 L_1 (* (- 1.0) A_1) A_2 ?x587) 0.0)))
 (let ((?x3768 (+ (* 5.0 L_1) (* (- 4.0) A_1) (* 4.0 S_2) S_0 ?x712 A_2 ?x587)))
 (let (($x9817 (not (<= 0.0 ?x3768))))
 (let (($x3215 (<= (+ (* (- 2.0) L_1) (* 2.0 A_1) (* (- 1.0) S_2) L_0 ?x712) 0.0)))
 (let (($x2985 (not $x3215)))
 (let ((?x625 (* (- 1.0) A_1)))
 (let ((?x1747 (* (/ 3.0 2.0) L_0)))
 (let ((?x1701 (* (- (/ 3.0 2.0)) A_0)))
 (let (($x9914 (not (<= 0.0 (+ ?x1701 ?x1747 (* (/ 5.0 2.0) S_2) L_1 ?x625 A_2 ?x587)))))
 (let (($x10027 (not (<= 0.0 (+ A_2 ?x712 L_0 ?x587 ?x568 A_1 loss_rate_tol)))))
 (let (($x414 (<= 0.0 (+ (* (- 2.0) A_0) ?x1288 (* 2.0 S_1) ?x587 A_1 loss_rate_tol))))
 (let (($x412 (not $x414)))
 (let (($x428 (not (<= 0.0 (+ ?x712 L_0 S_1 ?x587 A_2 loss_rate_tol)))))
 (let (($x9981 (<= 0.0 (+ (* (- 4.0) A_0) (* 3.0 L_0) (* 3.0 S_1) S_0 L_1))))
 (let (($x9982 (not $x9981)))
 (let (($x513 (not (<= 0.0 (+ ?x2771 (* 3.0 L_0) (* 4.0 S_1) L_1 ?x625)))))
 (let (($x13870 (or $x509 $x1152 (<= (+ ?x712 L_0 S_1 (* (/ 1.0 2.0) A_1) (* (- (/ 1.0 2.0)) A_3)) 0.0) $x9690 $x10008 $x10027)))
 (let (($x1660 (<= (+ (* (- (/ 1.0 2.0)) A_0) ?x849 S_1 (* (/ 1.0 2.0) L_1) (* (- (/ 1.0 2.0)) A_2)) 0.0)))
 (let ((?x2780 (* 4.0 S_1)))
 (let ((?x4380 (* 4.0 L_0)))
 (let ((?x1278 (* (- 5.0) A_0)))
 (let (($x10117 (not (<= 0.0 (+ ?x1278 ?x4380 ?x2780 S_0 L_1 A_2 ?x587)))))
 (let (($x9862 (<= 0.0 (+ (* (- 4.0) A_0) ?x4380 (* 5.0 S_1) L_1 ?x625 A_2 ?x587))))
 (let (($x21719 (or $x488 $x1152 (not (<= (+ A_0 ?x559 A_3 ?x878 (* (- 1.0) A_2)) 0.0)) $x9690 (not $x9862) $x10117)))
 (let (($x2870 (not (<= (+ ?x712 ?x878 S_0 A_1) 0.0))))
 (let ((?x1833 (* (/ 1.0 2.0) A_2)))
 (let ((?x2057 (* (- (/ 1.0 2.0)) A_1)))
 (let ((?x1668 (* (/ 1.0 2.0) L_1)))
 (let ((?x2230 (* (- (/ 1.0 2.0)) A_3)))
 (let ((?x1574 (* (- (/ 1.0 2.0)) A_0)))
 (let (($x22221 (or $x488 $x1152 (<= (+ ?x1574 ?x849 ?x2230 S_1 ?x1668 ?x2057 ?x1833) 0.0) $x9690 $x10117)))
 (let (($x2437 (<= (+ ?x587 S_1 L_1 ?x625 A_2) 0.0)))
 (let (($x21869 (or $x488 $x2437 (<= (+ (* (- 2.0) A_0) L_0 S_1 S_0 L_1 A_2 ?x587) 0.0) $x9690)))
 (let (($x2512 (<= (+ ?x1595 (* (- (/ 1.0 2.0)) L_0) ?x587 (* (/ 1.0 2.0) S_2) L_1 ?x625 A_2) 0.0)))
 (let (($x1156 (<= (+ L_1 ?x587 S_0 ?x712 A_2) 0.0)))
 (let (($x961 (<= (+ ?x587 A_2) 0.0)))
 (and (<= ?x568 ?x559) (or (<= (+ A_0 ?x559 (* (- 1.0) S_2)) 0.0) $x1152) (or $x961 (<= (+ ?x712 L_0 ?x587 (* 2.0 S_1) L_1) 0.0)) (or $x488 $x1156 $x2437) (or $x488 $x961 $x1156 $x2512) (or $x488 $x961 $x9649 $x9690 $x9817) (or $x412 $x488 $x513 $x1152 $x9690 $x9982 $x10027) $x21869 $x22221 (or $x509 $x961 $x9690) (or $x488 $x961 $x2870 $x9690 $x10117) (or $x488 $x513 $x9690 $x9904 $x9982) (or $x488 $x2870 $x9690 $x9904 $x10117) $x21719 (or $x1152 $x1660 $x9690 $x10008 $x10027) $x13870 (or $x1152 $x1578 $x9690 $x9963) (or $x428 $x488 $x513 $x1152 $x9690 $x9982) (or $x428 $x509 $x1152 $x9690 $x10008) (or $x412 $x509 $x1152 $x9690 $x10008 $x10027) (or $x446 $x9690 $x9904) (or $x488 $x1152 $x1746 $x9690 $x9914 $x10208) (or $x446 $x474 $x1152 $x9690) (or $x488 $x2985 $x9690 $x9817 $x9904) (or $x474 $x488 $x1152 $x9649 $x9690 $x9911) (or $x488 $x2985 $x9690 $x9904 $x10570) (or $x9644 $x9690 $x9904) (or $x488 $x1469 $x2438 $x9690 $x9817) (or $x1469 $x2438 $x9644 $x9690) (or $x468 $x488 $x1152 $x9649 $x9690 $x9911) (or $x446 $x468 $x1152 $x9690) (or $x509 $x9690 $x9904 $x10008) (or $x488 $x9649 $x9690 $x9904 $x9911) (or $x488 $x1443 $x9690 $x10570 $x10695) (or $x488 $x1469 $x9690 $x10570 $x10642) (or $x1469 $x9644 $x9690 $x10642) (or $x1443 $x9644 $x9690 $x10695) (or $x488 $x2842 $x9649 $x9690 $x9904) $x11912 (or $x488 $x9649 $x9690 $x9904 $x10208) (or $x474 $x488 $x1469 $x9649 $x9690 $x9911) (or $x462 $x1469 (<= (+ L_1 ?x559) 0.0) $x9649 $x9690 $x9911) (or $x468 $x488 $x1469 $x9649 $x9690 $x9911) (or $x488 $x1469 $x1746 $x9649 $x9690 $x10208) (or $x446 $x468 $x1469 $x9690) (or $x1469 $x1578 $x9690 $x9963) (or $x446 $x474 $x1469 $x9690) (or $x446 $x462 $x1469 $x9690) (<= (+ ?x712 L_0 S_0) 0.0) (<= (+ ?x878 S_0) 0.0) (<= (+ L_1 ?x587 S_2) 0.0) (<= (+ L_1 ?x625 S_1) 0.0) (<= (+ (* (- 1.0) S_2) S_1) 0.0) (<= (+ (* (- 1.0) A_2) L_1 S_2) 0.0))))))))))))))))))))))))))))))))))))))))))))))))))))))))))))))))))))))))))))))))))))
(check-sat)
